12 16 9 10
5 7 11 15 20 16 20 7 6 9 12 14 17 3 20 16 
6.84 12.92 9.71 14.72 12.82 0.05 5.28 4.61 1.66 2.61 1.39 14.53 11.34 15.21 9.57 1.31 
2.91 11.06 5.05 10.82 3.01 13.87 11.59 8 8.89 10.9 0.16 8.36 13.58 6.45 2.16 2.63 
3.6 12.45 6.25 8.94 9.65 11.22 14.78 11.78 13.75 8.07 11.46 7.85 9.96 15.23 11.81 8.84 
14 0.22 6.42 10.24 14.03 0.48 3.13 3.83 1.16 12.91 8.03 0.03 13.5 12.63 0.74 4.41 
8.94 6.94 15.7 10.58 0.79 11.77 9.14 3.47 0.22 15.84 5.69 6.97 0.25 11.1 10.36 6.98 
8.71 4.43 7.16 12.79 15.67 2.73 7.6 12.78 0.92 1.24 9.72 13.48 7.7 13.87 5.2 8.45 
12.21 9.46 13.4 5.11 0.4 2.35 14.6 4.41 0.94 1.44 8.69 15.79 5.38 2.97 7.72 0.04 
6.24 15.17 13.99 10.77 3.91 15.46 13.13 9.45 12.13 3.25 8.5 2.49 7.66 13.16 2.94 3.51 
7.46 6.65 2.24 14.56 9.67 6.86 1.51 9.58 8.95 3.73 15.81 15.07 12.62 15.24 15.9 2.36 
8 8 8 8 8 8 8 8 8 8 8 8 8 8 8 8 
12.56 4.68 10.47 8.77 12.47 14.45 5.15 15.78 3.15 4.4 7.44 15.29 0.16 14.3 10.66 14.25 
5.93 1.56 7.22 7.45 13.35 7.58 11.04 8.35 14.41 10.1 0.96 12.35 14.43 4.63 11.68 9.29 
1 1 1 1 1 1 1 1 1 1 1 1 1 1 1 1 
1 1 1 1 1 1 1 1 1 1 1 1 1 1 1 1 
1 1 1 1 1 1 1 1 1 1 1 1 1 1 1 1 
1 1 1 1 1 1 1 1 1 1 1 1 1 1 1 1 
1 1 1 1 1 1 1 1 1 1 1 1 1 1 1 1 
1 1 1 1 1 1 1 1 1 1 1 1 1 1 1 1 
1 1 1 1 1 1 1 1 1 1 1 1 1 1 1 1 
1 1 1 1 1 1 1 1 1 1 1 1 1 1 1 1 
1 1 1 1 1 1 1 1 1 1 1 1 1 1 1 1 
1 1 1 1 1 1 1 1 1 1 1 1 1 1 1 1 
1 1 1 1 1 1 1 1 1 1 1 1 1 1 1 1 
1 1 1 1 1 1 1 1 1 1 1 1 1 1 1 1 
0.01 0.01 0.01 0.01 0.01 0.01 0.01 0.01 0.01 0.01 0.01 0.01 0.01 0.01 0.01 0.01 
0.02 0.02 0.02 0.02 0.02 0.02 0.02 0.02 0.02 0.02 0.02 0.02 0.02 0.02 0.02 0.02 
0.03 0.03 0.03 0.03 0.03 0.03 0.03 0.03 0.03 0.03 0.03 0.03 0.03 0.03 0.03 0.03 
0.04 0.04 0.04 0.04 0.04 0.04 0.04 0.04 0.04 0.04 0.04 0.04 0.04 0.04 0.04 0.04 
0.05 0.05 0.05 0.05 0.05 0.05 0.05 0.05 0.05 0.05 0.05 0.05 0.05 0.05 0.05 0.05 
0.06 0.06 0.06 0.06 0.06 0.06 0.06 0.06 0.06 0.06 0.06 0.06 0.06 0.06 0.06 0.06 
0.07 0.07 0.07 0.07 0.07 0.07 0.07 0.07 0.07 0.07 0.07 0.07 0.07 0.07 0.07 0.07 
0.08 0.08 0.08 0.08 0.08 0.08 0.08 0.08 0.08 0.08 0.08 0.08 0.08 0.08 0.08 0.08 
0.09 0.09 0.09 0.09 0.09 0.09 0.09 0.09 0.09 0.09 0.09 0.09 0.09 0.09 0.09 0.09 
0.1 0.1 0.1 0.1 0.1 0.1 0.1 0.1 0.1 0.1 0.1 0.1 0.1 0.1 0.1 0.1 
0.5 0.5 0.5 0.5 0.5 0.5 0.5 0.5 0.5 0.5 0.5 0.5 0.5 0.5 0.5 0.5 
1 1 1 1 1 1 1 1 1 1 1 1 1 1 1 1 
